c File: data_files/evolved_graphs/g3623.col
c
c Auto generated graph
c
p edge 100 1864
e 1 4
e 1 7
e 1 9
e 1 10
e 1 11
e 1 13
e 1 17
e 1 19
e 1 20
e 1 28
e 1 29
e 1 30
e 1 31
e 1 36
e 1 38
e 1 44
e 1 46
e 1 50
e 1 53
e 1 56
e 1 58
e 1 60
e 1 62
e 1 65
e 1 67
e 1 70
e 1 71
e 1 73
e 1 75
e 1 78
e 1 83
e 1 86
e 1 91
e 1 93
e 1 95
e 2 3
e 2 5
e 2 6
e 2 8
e 2 9
e 2 11
e 2 12
e 2 13
e 2 25
e 2 27
e 2 28
e 2 29
e 2 30
e 2 32
e 2 35
e 2 36
e 2 39
e 2 40
e 2 41
e 2 43
e 2 45
e 2 46
e 2 47
e 2 48
e 2 49
e 2 51
e 2 54
e 2 58
e 2 61
e 2 63
e 2 64
e 2 66
e 2 69
e 2 75
e 2 76
e 2 77
e 2 84
e 2 85
e 2 91
e 2 94
e 2 97
e 3 5
e 3 6
e 3 8
e 3 11
e 3 30
e 3 32
e 3 46
e 3 48
e 3 50
e 3 52
e 3 54
e 3 56
e 3 60
e 3 62
e 3 63
e 3 66
e 3 69
e 3 70
e 3 71
e 3 73
e 3 74
e 3 76
e 3 84
e 3 87
e 3 88
e 3 89
e 3 93
e 3 94
e 3 96
e 3 97
e 3 98
e 4 5
e 4 6
e 4 12
e 4 13
e 4 14
e 4 16
e 4 25
e 4 26
e 4 29
e 4 30
e 4 32
e 4 33
e 4 35
e 4 41
e 4 43
e 4 44
e 4 45
e 4 49
e 4 52
e 4 59
e 4 60
e 4 66
e 4 71
e 4 77
e 4 78
e 4 79
e 4 80
e 4 81
e 4 82
e 4 85
e 4 88
e 4 92
e 4 97
e 4 98
e 4 100
e 5 11
e 5 12
e 5 16
e 5 20
e 5 22
e 5 25
e 5 28
e 5 32
e 5 38
e 5 39
e 5 46
e 5 51
e 5 54
e 5 60
e 5 64
e 5 65
e 5 66
e 5 69
e 5 70
e 5 71
e 5 77
e 5 80
e 5 81
e 5 82
e 5 86
e 5 87
e 5 89
e 5 93
e 5 97
e 5 98
e 6 7
e 6 10
e 6 11
e 6 12
e 6 13
e 6 14
e 6 18
e 6 20
e 6 21
e 6 22
e 6 24
e 6 29
e 6 33
e 6 34
e 6 36
e 6 38
e 6 39
e 6 41
e 6 42
e 6 45
e 6 46
e 6 47
e 6 48
e 6 50
e 6 54
e 6 56
e 6 59
e 6 62
e 6 63
e 6 65
e 6 66
e 6 67
e 6 68
e 6 69
e 6 72
e 6 75
e 6 77
e 6 80
e 6 82
e 6 84
e 6 86
e 6 94
e 7 11
e 7 14
e 7 18
e 7 22
e 7 23
e 7 28
e 7 29
e 7 30
e 7 32
e 7 33
e 7 35
e 7 39
e 7 40
e 7 44
e 7 50
e 7 51
e 7 52
e 7 57
e 7 70
e 7 71
e 7 72
e 7 75
e 7 78
e 7 79
e 7 80
e 7 81
e 7 85
e 7 86
e 7 88
e 7 91
e 7 93
e 7 95
e 7 96
e 8 10
e 8 13
e 8 20
e 8 22
e 8 31
e 8 33
e 8 35
e 8 36
e 8 38
e 8 41
e 8 43
e 8 46
e 8 47
e 8 48
e 8 51
e 8 54
e 8 55
e 8 57
e 8 58
e 8 60
e 8 61
e 8 62
e 8 69
e 8 70
e 8 77
e 8 81
e 8 82
e 8 84
e 8 86
e 8 87
e 8 88
e 8 95
e 8 96
e 8 97
e 9 12
e 9 14
e 9 17
e 9 20
e 9 23
e 9 24
e 9 26
e 9 28
e 9 29
e 9 30
e 9 33
e 9 34
e 9 38
e 9 39
e 9 40
e 9 41
e 9 43
e 9 45
e 9 47
e 9 49
e 9 53
e 9 55
e 9 58
e 9 59
e 9 61
e 9 67
e 9 68
e 9 72
e 9 75
e 9 79
e 9 80
e 9 81
e 9 83
e 9 84
e 9 85
e 9 86
e 9 89
e 9 91
e 9 92
e 9 98
e 10 11
e 10 17
e 10 20
e 10 22
e 10 25
e 10 27
e 10 29
e 10 30
e 10 35
e 10 38
e 10 41
e 10 43
e 10 44
e 10 45
e 10 46
e 10 48
e 10 51
e 10 52
e 10 53
e 10 58
e 10 59
e 10 60
e 10 61
e 10 64
e 10 69
e 10 70
e 10 76
e 10 77
e 10 79
e 10 82
e 10 85
e 10 87
e 10 89
e 10 90
e 10 92
e 10 96
e 10 97
e 11 16
e 11 18
e 11 19
e 11 23
e 11 26
e 11 27
e 11 29
e 11 30
e 11 33
e 11 36
e 11 42
e 11 46
e 11 47
e 11 51
e 11 53
e 11 56
e 11 57
e 11 59
e 11 60
e 11 62
e 11 63
e 11 64
e 11 66
e 11 70
e 11 72
e 11 73
e 11 74
e 11 75
e 11 77
e 11 78
e 11 80
e 11 81
e 11 82
e 11 83
e 11 84
e 11 87
e 11 88
e 11 90
e 11 92
e 12 18
e 12 19
e 12 31
e 12 33
e 12 34
e 12 35
e 12 36
e 12 37
e 12 38
e 12 39
e 12 40
e 12 41
e 12 43
e 12 50
e 12 53
e 12 54
e 12 64
e 12 68
e 12 69
e 12 72
e 12 73
e 12 74
e 12 76
e 12 78
e 12 79
e 12 81
e 12 85
e 12 87
e 12 91
e 12 96
e 12 97
e 13 15
e 13 16
e 13 18
e 13 20
e 13 21
e 13 22
e 13 25
e 13 28
e 13 29
e 13 31
e 13 34
e 13 35
e 13 39
e 13 44
e 13 46
e 13 51
e 13 57
e 13 60
e 13 61
e 13 64
e 13 65
e 13 68
e 13 72
e 13 77
e 13 78
e 13 83
e 13 84
e 13 90
e 13 95
e 13 96
e 13 98
e 14 16
e 14 18
e 14 19
e 14 22
e 14 25
e 14 30
e 14 31
e 14 36
e 14 44
e 14 45
e 14 48
e 14 51
e 14 53
e 14 55
e 14 56
e 14 58
e 14 62
e 14 63
e 14 64
e 14 66
e 14 67
e 14 68
e 14 71
e 14 72
e 14 75
e 14 76
e 14 78
e 14 79
e 14 82
e 14 83
e 14 85
e 14 87
e 14 91
e 14 93
e 14 94
e 14 96
e 14 98
e 15 16
e 15 21
e 15 23
e 15 24
e 15 27
e 15 28
e 15 30
e 15 32
e 15 35
e 15 36
e 15 37
e 15 46
e 15 50
e 15 54
e 15 55
e 15 57
e 15 58
e 15 59
e 15 60
e 15 63
e 15 64
e 15 65
e 15 66
e 15 67
e 15 71
e 15 73
e 15 74
e 15 76
e 15 79
e 15 88
e 15 91
e 15 92
e 15 94
e 15 95
e 15 96
e 15 97
e 16 17
e 16 18
e 16 22
e 16 26
e 16 28
e 16 29
e 16 33
e 16 34
e 16 40
e 16 41
e 16 43
e 16 44
e 16 45
e 16 47
e 16 48
e 16 49
e 16 57
e 16 59
e 16 62
e 16 63
e 16 68
e 16 72
e 16 74
e 16 80
e 16 83
e 16 86
e 16 87
e 16 89
e 16 94
e 16 95
e 16 97
e 17 28
e 17 29
e 17 31
e 17 32
e 17 36
e 17 37
e 17 40
e 17 42
e 17 44
e 17 46
e 17 50
e 17 54
e 17 57
e 17 58
e 17 59
e 17 60
e 17 61
e 17 66
e 17 67
e 17 69
e 17 71
e 17 72
e 17 73
e 17 74
e 17 76
e 17 80
e 17 83
e 17 84
e 17 87
e 17 88
e 17 90
e 17 94
e 17 98
e 18 23
e 18 24
e 18 25
e 18 26
e 18 30
e 18 32
e 18 38
e 18 39
e 18 43
e 18 45
e 18 46
e 18 49
e 18 50
e 18 51
e 18 52
e 18 54
e 18 55
e 18 61
e 18 62
e 18 63
e 18 70
e 18 71
e 18 74
e 18 75
e 18 78
e 18 79
e 18 80
e 18 83
e 18 86
e 18 90
e 19 23
e 19 32
e 19 33
e 19 35
e 19 36
e 19 37
e 19 38
e 19 40
e 19 42
e 19 46
e 19 47
e 19 52
e 19 53
e 19 55
e 19 56
e 19 62
e 19 64
e 19 66
e 19 67
e 19 68
e 19 70
e 19 74
e 19 80
e 19 82
e 19 84
e 19 87
e 19 93
e 19 94
e 19 97
e 19 98
e 20 21
e 20 22
e 20 23
e 20 24
e 20 28
e 20 29
e 20 30
e 20 31
e 20 34
e 20 35
e 20 41
e 20 45
e 20 52
e 20 55
e 20 57
e 20 65
e 20 76
e 20 79
e 20 81
e 20 87
e 20 88
e 20 90
e 21 22
e 21 29
e 21 30
e 21 33
e 21 34
e 21 35
e 21 39
e 21 48
e 21 50
e 21 54
e 21 56
e 21 58
e 21 59
e 21 62
e 21 63
e 21 66
e 21 68
e 21 70
e 21 72
e 21 73
e 21 77
e 21 78
e 21 79
e 21 82
e 21 84
e 21 85
e 21 92
e 21 94
e 21 98
e 22 25
e 22 27
e 22 35
e 22 36
e 22 41
e 22 42
e 22 45
e 22 46
e 22 52
e 22 55
e 22 56
e 22 59
e 22 67
e 22 73
e 22 76
e 22 79
e 22 80
e 22 82
e 22 85
e 22 89
e 22 92
e 22 93
e 22 94
e 22 95
e 22 97
e 23 24
e 23 25
e 23 27
e 23 28
e 23 35
e 23 37
e 23 38
e 23 40
e 23 46
e 23 47
e 23 48
e 23 50
e 23 52
e 23 53
e 23 54
e 23 58
e 23 59
e 23 60
e 23 61
e 23 63
e 23 65
e 23 69
e 23 70
e 23 71
e 23 83
e 23 85
e 23 86
e 23 93
e 23 95
e 23 98
e 24 25
e 24 27
e 24 29
e 24 31
e 24 33
e 24 35
e 24 38
e 24 44
e 24 46
e 24 50
e 24 52
e 24 54
e 24 60
e 24 61
e 24 67
e 24 68
e 24 69
e 24 70
e 24 73
e 24 76
e 24 80
e 24 83
e 24 88
e 24 92
e 24 93
e 24 94
e 24 97
e 24 98
e 24 100
e 25 28
e 25 30
e 25 32
e 25 37
e 25 44
e 25 46
e 25 48
e 25 51
e 25 55
e 25 56
e 25 59
e 25 69
e 25 74
e 25 75
e 25 76
e 25 78
e 25 79
e 25 81
e 25 82
e 25 83
e 25 84
e 25 85
e 25 91
e 25 93
e 25 96
e 25 97
e 25 100
e 26 27
e 26 28
e 26 31
e 26 39
e 26 41
e 26 43
e 26 44
e 26 47
e 26 48
e 26 51
e 26 52
e 26 58
e 26 59
e 26 65
e 26 67
e 26 75
e 26 79
e 26 82
e 26 83
e 26 84
e 26 85
e 26 87
e 26 88
e 26 89
e 26 94
e 26 97
e 26 98
e 27 28
e 27 31
e 27 33
e 27 35
e 27 39
e 27 40
e 27 41
e 27 43
e 27 45
e 27 50
e 27 51
e 27 54
e 27 55
e 27 57
e 27 59
e 27 60
e 27 61
e 27 65
e 27 67
e 27 69
e 27 70
e 27 73
e 27 74
e 27 77
e 27 78
e 27 81
e 27 83
e 27 84
e 27 85
e 27 88
e 27 95
e 27 98
e 28 31
e 28 32
e 28 33
e 28 37
e 28 38
e 28 43
e 28 46
e 28 50
e 28 58
e 28 59
e 28 62
e 28 64
e 28 70
e 28 71
e 28 72
e 28 74
e 28 75
e 28 79
e 28 83
e 28 85
e 28 87
e 28 89
e 28 91
e 28 93
e 28 94
e 28 95
e 28 96
e 29 32
e 29 33
e 29 35
e 29 36
e 29 44
e 29 45
e 29 46
e 29 50
e 29 51
e 29 52
e 29 53
e 29 57
e 29 60
e 29 61
e 29 64
e 29 65
e 29 67
e 29 69
e 29 72
e 29 76
e 29 82
e 29 84
e 29 86
e 29 87
e 29 90
e 29 91
e 29 93
e 29 97
e 30 36
e 30 37
e 30 40
e 30 41
e 30 46
e 30 49
e 30 52
e 30 54
e 30 56
e 30 58
e 30 60
e 30 64
e 30 66
e 30 73
e 30 75
e 30 76
e 30 80
e 30 82
e 30 84
e 30 85
e 30 87
e 30 90
e 30 91
e 31 32
e 31 37
e 31 40
e 31 45
e 31 46
e 31 51
e 31 53
e 31 58
e 31 60
e 31 61
e 31 62
e 31 64
e 31 65
e 31 66
e 31 67
e 31 74
e 31 76
e 31 78
e 31 84
e 31 87
e 31 90
e 31 93
e 31 95
e 31 97
e 32 35
e 32 36
e 32 40
e 32 41
e 32 42
e 32 46
e 32 50
e 32 51
e 32 53
e 32 55
e 32 57
e 32 61
e 32 63
e 32 67
e 32 69
e 32 70
e 32 72
e 32 73
e 32 75
e 32 76
e 32 78
e 32 82
e 32 83
e 32 84
e 32 87
e 32 90
e 32 93
e 32 96
e 33 34
e 33 35
e 33 37
e 33 38
e 33 39
e 33 47
e 33 48
e 33 49
e 33 50
e 33 51
e 33 53
e 33 57
e 33 58
e 33 59
e 33 64
e 33 66
e 33 67
e 33 68
e 33 69
e 33 70
e 33 72
e 33 74
e 33 75
e 33 76
e 33 79
e 33 80
e 33 82
e 33 83
e 33 85
e 33 87
e 33 88
e 33 89
e 33 91
e 33 93
e 33 95
e 33 96
e 34 41
e 34 44
e 34 45
e 34 48
e 34 49
e 34 51
e 34 53
e 34 54
e 34 57
e 34 58
e 34 61
e 34 62
e 34 66
e 34 68
e 34 70
e 34 71
e 34 72
e 34 73
e 34 75
e 34 79
e 34 87
e 34 90
e 34 92
e 34 93
e 34 96
e 35 36
e 35 38
e 35 40
e 35 41
e 35 42
e 35 43
e 35 45
e 35 46
e 35 48
e 35 51
e 35 54
e 35 56
e 35 57
e 35 65
e 35 70
e 35 73
e 35 74
e 35 75
e 35 78
e 35 83
e 35 85
e 35 86
e 35 94
e 35 96
e 35 97
e 35 100
e 36 37
e 36 38
e 36 39
e 36 43
e 36 46
e 36 47
e 36 48
e 36 49
e 36 50
e 36 55
e 36 59
e 36 63
e 36 68
e 36 74
e 36 79
e 36 80
e 36 81
e 36 83
e 36 86
e 36 90
e 36 91
e 36 94
e 36 95
e 36 98
e 37 42
e 37 43
e 37 44
e 37 45
e 37 46
e 37 49
e 37 50
e 37 51
e 37 54
e 37 57
e 37 58
e 37 60
e 37 65
e 37 66
e 37 67
e 37 68
e 37 70
e 37 72
e 37 74
e 37 75
e 37 76
e 37 81
e 37 83
e 37 91
e 37 93
e 37 95
e 37 97
e 37 98
e 38 40
e 38 41
e 38 42
e 38 44
e 38 45
e 38 50
e 38 52
e 38 53
e 38 56
e 38 61
e 38 62
e 38 64
e 38 67
e 38 69
e 38 70
e 38 80
e 38 81
e 38 87
e 38 90
e 38 91
e 38 93
e 38 94
e 38 97
e 38 98
e 38 99
e 39 43
e 39 46
e 39 48
e 39 52
e 39 54
e 39 60
e 39 61
e 39 63
e 39 66
e 39 67
e 39 68
e 39 69
e 39 70
e 39 71
e 39 72
e 39 73
e 39 75
e 39 76
e 39 79
e 39 80
e 39 81
e 39 84
e 39 85
e 39 95
e 39 98
e 40 45
e 40 47
e 40 48
e 40 52
e 40 53
e 40 54
e 40 59
e 40 60
e 40 61
e 40 64
e 40 65
e 40 66
e 40 67
e 40 69
e 40 72
e 40 73
e 40 74
e 40 76
e 40 77
e 40 79
e 40 83
e 40 88
e 40 91
e 40 92
e 40 94
e 40 97
e 40 98
e 41 43
e 41 44
e 41 46
e 41 52
e 41 55
e 41 58
e 41 61
e 41 62
e 41 63
e 41 65
e 41 66
e 41 70
e 41 71
e 41 74
e 41 80
e 41 85
e 41 89
e 41 92
e 41 93
e 41 94
e 41 96
e 41 98
e 42 43
e 42 44
e 42 47
e 42 48
e 42 50
e 42 51
e 42 54
e 42 55
e 42 56
e 42 58
e 42 60
e 42 64
e 42 66
e 42 71
e 42 73
e 42 74
e 42 76
e 42 78
e 42 90
e 42 91
e 42 92
e 42 95
e 42 96
e 42 97
e 42 98
e 43 44
e 43 51
e 43 52
e 43 53
e 43 54
e 43 57
e 43 59
e 43 63
e 43 65
e 43 68
e 43 70
e 43 71
e 43 73
e 43 75
e 43 76
e 43 77
e 43 78
e 43 80
e 43 81
e 43 82
e 43 85
e 43 86
e 43 87
e 43 90
e 43 91
e 43 95
e 43 96
e 43 97
e 43 99
e 44 49
e 44 51
e 44 54
e 44 57
e 44 59
e 44 61
e 44 62
e 44 64
e 44 66
e 44 68
e 44 69
e 44 70
e 44 77
e 44 78
e 44 79
e 44 82
e 44 85
e 44 86
e 44 95
e 44 97
e 44 98
e 45 46
e 45 47
e 45 51
e 45 54
e 45 56
e 45 59
e 45 62
e 45 63
e 45 65
e 45 66
e 45 68
e 45 69
e 45 77
e 45 79
e 45 80
e 45 84
e 45 86
e 45 91
e 45 92
e 45 97
e 45 100
e 46 48
e 46 50
e 46 51
e 46 53
e 46 54
e 46 60
e 46 61
e 46 64
e 46 66
e 46 68
e 46 69
e 46 70
e 46 74
e 46 75
e 46 79
e 46 80
e 46 82
e 46 85
e 46 89
e 46 91
e 46 100
e 47 48
e 47 51
e 47 53
e 47 54
e 47 67
e 47 71
e 47 78
e 47 79
e 47 82
e 47 84
e 47 85
e 47 90
e 47 94
e 47 95
e 47 97
e 48 49
e 48 50
e 48 52
e 48 53
e 48 56
e 48 58
e 48 61
e 48 65
e 48 66
e 48 67
e 48 69
e 48 70
e 48 73
e 48 80
e 48 85
e 48 93
e 48 94
e 48 96
e 48 98
e 49 51
e 49 58
e 49 61
e 49 65
e 49 69
e 49 70
e 49 74
e 49 75
e 49 78
e 49 81
e 49 85
e 49 86
e 49 87
e 49 89
e 49 90
e 49 91
e 49 93
e 49 95
e 49 96
e 49 97
e 50 52
e 50 56
e 50 58
e 50 59
e 50 60
e 50 61
e 50 62
e 50 63
e 50 65
e 50 68
e 50 69
e 50 77
e 50 78
e 50 80
e 50 81
e 50 86
e 50 87
e 50 88
e 50 96
e 51 53
e 51 57
e 51 61
e 51 62
e 51 64
e 51 66
e 51 68
e 51 71
e 51 75
e 51 76
e 51 80
e 51 81
e 51 82
e 51 83
e 51 85
e 51 87
e 51 88
e 51 92
e 51 93
e 51 95
e 51 96
e 52 54
e 52 59
e 52 66
e 52 67
e 52 71
e 52 73
e 52 76
e 52 77
e 52 79
e 52 80
e 52 84
e 52 85
e 52 86
e 52 89
e 52 91
e 52 94
e 52 96
e 52 97
e 53 64
e 53 65
e 53 70
e 53 71
e 53 72
e 53 73
e 53 75
e 53 76
e 53 77
e 53 78
e 53 79
e 53 81
e 53 82
e 53 87
e 53 89
e 53 95
e 54 56
e 54 57
e 54 61
e 54 63
e 54 64
e 54 65
e 54 69
e 54 73
e 54 79
e 54 83
e 54 84
e 54 86
e 54 87
e 54 91
e 54 96
e 54 98
e 55 60
e 55 68
e 55 69
e 55 71
e 55 75
e 55 76
e 55 86
e 55 91
e 55 93
e 55 97
e 55 98
e 56 57
e 56 58
e 56 61
e 56 64
e 56 69
e 56 71
e 56 76
e 56 82
e 56 86
e 56 88
e 56 93
e 56 95
e 56 98
e 57 58
e 57 59
e 57 61
e 57 63
e 57 66
e 57 70
e 57 71
e 57 72
e 57 73
e 57 75
e 57 78
e 57 80
e 57 81
e 57 82
e 57 83
e 57 84
e 57 86
e 57 91
e 57 93
e 57 95
e 57 98
e 58 59
e 58 61
e 58 65
e 58 66
e 58 67
e 58 68
e 58 71
e 58 72
e 58 75
e 58 78
e 58 80
e 58 85
e 58 86
e 58 87
e 58 88
e 58 96
e 58 98
e 59 62
e 59 63
e 59 64
e 59 66
e 59 70
e 59 71
e 59 77
e 59 78
e 59 83
e 59 86
e 59 89
e 59 90
e 59 92
e 60 61
e 60 62
e 60 64
e 60 65
e 60 67
e 60 68
e 60 70
e 60 76
e 60 82
e 60 84
e 60 87
e 60 88
e 60 89
e 60 90
e 60 94
e 60 95
e 60 96
e 60 98
e 61 63
e 61 64
e 61 70
e 61 74
e 61 79
e 61 80
e 61 82
e 61 84
e 61 88
e 61 89
e 61 95
e 62 67
e 62 69
e 62 70
e 62 72
e 62 73
e 62 79
e 62 86
e 62 87
e 62 90
e 62 92
e 62 93
e 62 94
e 62 96
e 62 98
e 63 65
e 63 70
e 63 71
e 63 72
e 63 75
e 63 80
e 63 81
e 63 85
e 63 88
e 63 91
e 63 93
e 63 94
e 63 99
e 64 66
e 64 67
e 64 68
e 64 70
e 64 72
e 64 79
e 64 82
e 64 83
e 64 84
e 64 85
e 64 88
e 64 90
e 64 91
e 64 94
e 64 96
e 65 66
e 65 69
e 65 71
e 65 74
e 65 75
e 65 77
e 65 78
e 65 79
e 65 80
e 65 90
e 65 94
e 65 95
e 66 70
e 66 71
e 66 73
e 66 77
e 66 78
e 66 94
e 66 95
e 66 96
e 66 97
e 67 74
e 67 75
e 67 77
e 67 82
e 67 87
e 67 88
e 67 89
e 67 91
e 67 92
e 67 94
e 67 95
e 68 70
e 68 74
e 68 77
e 68 79
e 68 80
e 68 81
e 68 84
e 68 85
e 68 88
e 68 91
e 68 98
e 68 100
e 69 70
e 69 72
e 69 73
e 69 74
e 69 77
e 69 78
e 69 79
e 69 83
e 69 85
e 69 95
e 69 96
e 70 71
e 70 75
e 70 77
e 70 79
e 70 80
e 70 83
e 70 85
e 70 87
e 70 88
e 70 91
e 70 92
e 70 96
e 71 74
e 71 77
e 71 80
e 71 82
e 71 83
e 71 85
e 71 86
e 71 87
e 71 93
e 71 98
e 72 73
e 72 75
e 72 76
e 72 77
e 72 79
e 72 83
e 72 85
e 72 88
e 72 89
e 72 94
e 72 95
e 72 97
e 73 74
e 73 75
e 73 76
e 73 81
e 73 82
e 73 85
e 73 86
e 73 87
e 73 90
e 73 91
e 73 92
e 73 95
e 73 98
e 74 75
e 74 78
e 74 81
e 74 82
e 74 88
e 74 92
e 74 99
e 75 78
e 75 82
e 75 85
e 75 88
e 75 94
e 75 97
e 76 78
e 76 79
e 76 82
e 76 86
e 76 89
e 76 90
e 76 98
e 77 79
e 77 80
e 77 82
e 77 83
e 77 84
e 77 87
e 77 88
e 77 89
e 77 91
e 77 94
e 77 95
e 77 96
e 77 98
e 78 79
e 78 80
e 78 81
e 78 82
e 78 85
e 78 90
e 78 94
e 78 98
e 79 80
e 79 82
e 79 83
e 79 87
e 79 91
e 79 95
e 79 98
e 80 82
e 80 84
e 80 86
e 80 89
e 80 95
e 80 96
e 80 99
e 81 84
e 81 88
e 81 95
e 81 98
e 82 83
e 82 84
e 82 85
e 82 87
e 82 88
e 82 91
e 83 84
e 83 86
e 83 87
e 83 93
e 83 96
e 83 98
e 84 86
e 84 89
e 84 90
e 84 91
e 84 93
e 84 96
e 84 100
e 85 87
e 85 90
e 85 93
e 85 96
e 85 97
e 86 89
e 86 91
e 86 92
e 86 93
e 87 93
e 87 98
e 88 96
e 88 98
e 89 91
e 89 92
e 89 93
e 89 96
e 89 98
e 90 92
e 90 96
e 90 97
e 91 93
e 91 94
e 92 93
e 92 97
e 92 98
e 93 96
e 93 99
e 95 97
e 96 98
e 96 99
e 98 100
